benchmarks_vrp/CMT3/tsp_classic/CMT3_6.vrp
NAME: CMT3_6
TYPE: CVRP
COMMENT: 826.14 - Cluster Nr.6
DIMENSION: 14
CAPACITY: 200
EDGE_WEIGHT_TYPE: EUC_2D
NODE_COORD_TYPE: TWOD_COORDS
NODE_COORD_SECTION: 
3 65 35
8 53 12
11 49 11
13 57 29
9 35 35
7 65 20
12 67 5
10 63 23
6 60 12
14 53 52
2 55 5
4 55 20
5 61 52
1 64 42
DEPOT_SECTION: 
9
-1
DEMAND_SECTION: 
13 18
2 29
10 2
4 19
9 0
11 18
12 25
14 11
5 3
6 31
7 6
3 3
1 9
8 6
EOF
