benchmarks_vrp/CMT3/tsp_classic/CMT3_6.tour
NAME: CMT3_6 solution
TYPE: TOUR
TOUR_SECTION:
9 4 8 11 2 12 6 7 10 13 3 1 5 14 -1
-1
EOF